c b=5,c=261
p cnf 18 79
2 3 5 -10 0
1 2 5 -12 0
5 -18 0
2 3 -5 10 0
2 3 -5 12 0
-5 18 0
1 2 4 -9 0
3 4 -11 0
4 -17 0
1 2 -4 9 0
2 3 -4 11 0
-4 17 0
1 3 -8 0
2 3 -13 0
3 -16 0
1 2 -3 5 10 0
1 4 5 -11 0
1 2 -3 -5 -10 0
-3 4 -5 11 0
4 -5 12 0
4 -13 0
1 2 -4 5 11 0
5 -13 0
-3 -4 -5 -11 0
-3 -4 -5 13 0
1 2 -3 -4 -12 0
1 -3 8 0
-3 16 0
2 -7 0
2 -15 0
1 3 4 5 -10 0
3 5 -12 0
1 3 4 -5 10 0
1 -2 4 9 0
-2 3 -4 5 10 0
3 -4 5 11 0
-2 3 -4 -5 -10 0
-2 3 -5 -11 0
-2 -4 -5 13 0
1 -2 -4 -9 0
-2 3 -4 -12 0
1 -3 4 5 10 0
1 -2 -3 5 -11 0
4 5 -12 0
1 -3 4 -5 -10 0
-2 -3 -4 5 -10 0
-2 -3 -4 5 12 0
-2 -3 -4 -5 10 0
-2 -4 -5 -12 0
-2 -3 -4 -11 0
-2 7 0
-2 15 0
1 -6 0
1 -14 0
2 3 4 -9 0
2 3 -4 9 0
-1 3 8 0
2 -3 4 5 10 0
-1 2 -3 5 -11 0
2 -3 4 -5 -10 0
-1 2 -3 4 9 0
-1 2 -4 5 -10 0
-1 -3 -4 5 12 0
-1 2 -4 -5 10 0
-1 -3 -4 -5 -12 0
-1 2 -3 -4 -9 0
-1 -3 -4 -11 0
-1 -3 -8 0
-1 -2 4 5 -10 0
-1 -2 4 -5 10 0
-2 3 4 9 0
-2 3 -4 -9 0
-1 -2 -3 5 -10 0
-1 -2 -3 -5 10 0
-1 -2 -3 4 -9 0
-1 -2 -3 4 11 0
-1 -2 -3 -4 9 0
-1 6 0
-1 14 0
